
(set-logic HORN)
(declare-datatypes ((Bin_15 0)) (((One_17) (ZeroAnd_15 (projZeroAnd_30 Bin_15)) (OneAnd_15 (projOneAnd_30 Bin_15)))))
(declare-fun diseqBin_15 (Bin_15 Bin_15) Bool)
(declare-fun projZeroAnd_31 (Bin_15 Bin_15) Bool)
(declare-fun projOneAnd_31 (Bin_15 Bin_15) Bool)
(declare-fun isOne_15 (Bin_15) Bool)
(declare-fun isZeroAnd_15 (Bin_15) Bool)
(declare-fun isOneAnd_15 (Bin_15) Bool)
(assert (forall ((x_52581 Bin_15))
	(projZeroAnd_31 x_52581 (ZeroAnd_15 x_52581))))
(assert (forall ((x_52583 Bin_15))
	(projOneAnd_31 x_52583 (OneAnd_15 x_52583))))
(assert (isOne_15 One_17))
(assert (forall ((x_52585 Bin_15))
	(isZeroAnd_15 (ZeroAnd_15 x_52585))))
(assert (forall ((x_52586 Bin_15))
	(isOneAnd_15 (OneAnd_15 x_52586))))
(assert (forall ((x_52587 Bin_15))
	(diseqBin_15 One_17 (ZeroAnd_15 x_52587))))
(assert (forall ((x_52588 Bin_15))
	(diseqBin_15 One_17 (OneAnd_15 x_52588))))
(assert (forall ((x_52589 Bin_15))
	(diseqBin_15 (ZeroAnd_15 x_52589) One_17)))
(assert (forall ((x_52590 Bin_15))
	(diseqBin_15 (OneAnd_15 x_52590) One_17)))
(assert (forall ((x_52591 Bin_15) (x_52592 Bin_15))
	(diseqBin_15 (ZeroAnd_15 x_52591) (OneAnd_15 x_52592))))
(assert (forall ((x_52593 Bin_15) (x_52594 Bin_15))
	(diseqBin_15 (OneAnd_15 x_52593) (ZeroAnd_15 x_52594))))
(assert (forall ((x_52595 Bin_15) (x_52596 Bin_15))
	(=> (diseqBin_15 x_52595 x_52596) (diseqBin_15 (ZeroAnd_15 x_52595) (ZeroAnd_15 x_52596)))))
(assert (forall ((x_52597 Bin_15) (x_52598 Bin_15))
	(=> (diseqBin_15 x_52597 x_52598) (diseqBin_15 (OneAnd_15 x_52597) (OneAnd_15 x_52598)))))
(declare-fun s_403 (Bin_15 Bin_15) Bool)
(assert (forall ((x_52559 Bin_15) (ys_192 Bin_15))
	(=> (s_403 x_52559 ys_192) (s_403 (ZeroAnd_15 x_52559) (OneAnd_15 ys_192)))))
(assert (forall ((xs_576 Bin_15))
	(s_403 (OneAnd_15 xs_576) (ZeroAnd_15 xs_576))))
(assert (s_403 (ZeroAnd_15 One_17) One_17))
(declare-fun plus_130 (Bin_15 Bin_15 Bin_15) Bool)
(assert (forall ((x_52563 Bin_15) (x_52564 Bin_15) (ys_193 Bin_15) (x_52556 Bin_15))
	(=> (and (plus_130 x_52563 x_52556 ys_193) (s_403 x_52564 x_52563)) (plus_130 (ZeroAnd_15 x_52564) (OneAnd_15 x_52556) (OneAnd_15 ys_193)))))
(assert (forall ((x_52566 Bin_15) (zs_66 Bin_15) (x_52556 Bin_15))
	(=> (plus_130 x_52566 x_52556 zs_66) (plus_130 (OneAnd_15 x_52566) (OneAnd_15 x_52556) (ZeroAnd_15 zs_66)))))
(assert (forall ((x_52567 Bin_15) (x_52556 Bin_15))
	(=> (s_403 x_52567 (OneAnd_15 x_52556)) (plus_130 x_52567 (OneAnd_15 x_52556) One_17))))
(assert (forall ((x_52570 Bin_15) (xs_577 Bin_15) (z_1797 Bin_15))
	(=> (plus_130 x_52570 z_1797 xs_577) (plus_130 (OneAnd_15 x_52570) (ZeroAnd_15 z_1797) (OneAnd_15 xs_577)))))
(assert (forall ((x_52572 Bin_15) (ys_194 Bin_15) (z_1797 Bin_15))
	(=> (plus_130 x_52572 z_1797 ys_194) (plus_130 (ZeroAnd_15 x_52572) (ZeroAnd_15 z_1797) (ZeroAnd_15 ys_194)))))
(assert (forall ((x_52573 Bin_15) (z_1797 Bin_15))
	(=> (s_403 x_52573 (ZeroAnd_15 z_1797)) (plus_130 x_52573 (ZeroAnd_15 z_1797) One_17))))
(assert (forall ((x_52575 Bin_15) (y_2017 Bin_15))
	(=> (s_403 x_52575 y_2017) (plus_130 x_52575 One_17 y_2017))))
(assert (forall ((x_52577 Bin_15) (x_52578 Bin_15) (x_52557 Bin_15) (y_2018 Bin_15))
	(=> (and true (diseqBin_15 x_52577 x_52578) (plus_130 x_52577 x_52557 y_2018) (plus_130 x_52578 y_2018 x_52557)) false)))
(check-sat)
